141176
14,3,102,60,46,13,101,73,82,33,25,49,67,98,99,50,81,32,72,1,71,44,24,85,45,76,61,21,20,16,89,63,15,19,55,39,5,68,87,12,97,41,80,18,8,7,96,105,30,64,51,4,54,29,28,11,92,22,91,56,79,88,75,27,26,9,58,65,43,86,0,57,23,42,78,90,59,95,77,93,2,100,104,37,103,10,40,66,94,53,70,84,47,35,36,69,17,48,38,83,52,6,31,62,34,74
